unsat
(forall ((A (_ BitVec 1))
         (B (_ BitVec 1))
         (C (_ BitVec 4))
         (D (_ BitVec 23))
         (E (_ BitVec 1))
         (F (_ BitVec 1))
         (G (_ BitVec 4))
         (H (_ BitVec 1))
         (I (_ BitVec 4))
         (J (_ BitVec 1))
         (K (_ BitVec 32))
         (L (_ BitVec 1))
         (M (_ BitVec 1))
         (N (_ BitVec 1))
         (O (_ BitVec 1))
         (P (_ BitVec 5))
         (Q (_ BitVec 1))
         (R (_ BitVec 1))
         (S (_ BitVec 5))
         (T (_ BitVec 1))
         (U (_ BitVec 1))
         (V (_ BitVec 1))
         (W (_ BitVec 1))
         (X (_ BitVec 1))
         (Y (_ BitVec 1))
         (Z (_ BitVec 5))
         (A1 (_ BitVec 64))
         (B1 (_ BitVec 32))
         (C1 (_ BitVec 1))
         (D1 (_ BitVec 1))
         (E1 (_ BitVec 32))
         (F1 (_ BitVec 1))
         (G1 (_ BitVec 1))
         (H1 (_ BitVec 1))
         (I1 (_ BitVec 32))
         (J1 (_ BitVec 30))
         (K1 (_ BitVec 30))
         (L1 (_ BitVec 1))
         (M1 (_ BitVec 1))
         (N1 (_ BitVec 1))
         (O1 (_ BitVec 32))
         (P1 (_ BitVec 32))
         (Q1 (_ BitVec 1))
         (R1 (_ BitVec 1))
         (S1 (_ BitVec 15))
         (T1 (_ BitVec 5))
         (U1 (_ BitVec 1))
         (V1 (_ BitVec 30))
         (W1 (_ BitVec 1))
         (X1 (_ BitVec 7))
         (Y1 (_ BitVec 1))
         (Z1 (_ BitVec 1))
         (A2 (_ BitVec 1))
         (B2 (_ BitVec 1))
         (C2 (_ BitVec 1))
         (D2 (_ BitVec 32))
         (E2 (_ BitVec 1))
         (F2 (_ BitVec 1))
         (G2 (_ BitVec 1))
         (H2 (_ BitVec 1))
         (I2 (_ BitVec 1))
         (J2 (_ BitVec 5))
         (K2 (_ BitVec 1))
         (L2 (_ BitVec 1))
         (M2 (_ BitVec 1))
         (N2 (_ BitVec 32))
         (O2 (_ BitVec 4))
         (P2 (_ BitVec 7))
         (Q2 (_ BitVec 32))
         (R2 (_ BitVec 1))
         (S2 (_ BitVec 1))
         (T2 (_ BitVec 1))
         (U2 (_ BitVec 1))
         (V2 (_ BitVec 1))
         (W2 (_ BitVec 5))
         (X2 (_ BitVec 1))
         (Y2 (_ BitVec 1))
         (Z2 (_ BitVec 1))
         (A3 (_ BitVec 2))
         (B3 (_ BitVec 1))
         (C3 (_ BitVec 5))
         (D3 (_ BitVec 23))
         (E3 (_ BitVec 1))
         (F3 (_ BitVec 5))
         (G3 (_ BitVec 6))
         (H3 (_ BitVec 1))
         (I3 (_ BitVec 1))
         (J3 (_ BitVec 1))
         (K3 (_ BitVec 1))
         (L3 (_ BitVec 7))
         (M3 (_ BitVec 2))
         (N3 (_ BitVec 1))
         (O3 (_ BitVec 1))
         (P3 (_ BitVec 1))
         (Q3 (_ BitVec 1))
         (R3 (_ BitVec 32))
         (S3 (_ BitVec 1))
         (T3 (_ BitVec 1))
         (U3 (_ BitVec 1))
         (V3 (_ BitVec 2))
         (W3 (_ BitVec 1))
         (X3 (_ BitVec 2))
         (Y3 (_ BitVec 1))
         (Z3 (_ BitVec 4))
         (A4 (_ BitVec 4))
         (B4 (_ BitVec 32))
         (C4 (_ BitVec 1))
         (D4 (_ BitVec 1))
         (E4 (_ BitVec 1))
         (F4 (_ BitVec 1))
         (G4 (_ BitVec 32))
         (H4 (_ BitVec 1))
         (I4 (_ BitVec 32))
         (J4 (_ BitVec 1))
         (K4 (_ BitVec 1))
         (L4 (_ BitVec 1))
         (M4 (_ BitVec 1))
         (N4 (_ BitVec 1))
         (O4 (_ BitVec 6))
         (P4 (_ BitVec 1))
         (Q4 (_ BitVec 1))
         (R4 (_ BitVec 8))
         (S4 (_ BitVec 32))
         (T4 (_ BitVec 1))
         (U4 (_ BitVec 1))
         (V4 (_ BitVec 1))
         (W4 (_ BitVec 1))
         (X4 (_ BitVec 1))
         (Y4 (_ BitVec 1))
         (Z4 (_ BitVec 1))
         (A5 (_ BitVec 4))
         (B5 (_ BitVec 32))
         (C5 (_ BitVec 1))
         (D5 (_ BitVec 1))
         (E5 (_ BitVec 4))
         (F5 (_ BitVec 5))
         (G5 (_ BitVec 1))
         (H5 (_ BitVec 1))
         (I5 (_ BitVec 1))
         (J5 (_ BitVec 1))
         (K5 (_ BitVec 32))
         (L5 (_ BitVec 1))
         (M5 (_ BitVec 32))
         (N5 (_ BitVec 1))
         (O5 (_ BitVec 3))
         (P5 (_ BitVec 1))
         (Q5 (_ BitVec 1))
         (R5 (_ BitVec 1))
         (S5 (_ BitVec 2))
         (T5 (_ BitVec 1))
         (U5 (_ BitVec 1))
         (V5 (_ BitVec 1))
         (W5 (_ BitVec 7))
         (X5 (_ BitVec 1))
         (Y5 (_ BitVec 32))
         (Z5 (_ BitVec 32))
         (A6 (_ BitVec 1))
         (B6 (_ BitVec 1))
         (C6 (_ BitVec 7))
         (D6 (_ BitVec 1))
         (E6 (Array (_ BitVec 5) (_ BitVec 32)))
         (F6 (_ BitVec 1))
         (G6 (_ BitVec 32))
         (H6 (_ BitVec 1))
         (I6 (_ BitVec 32))
         (J6 (_ BitVec 1))
         (K6 (_ BitVec 1))
         (L6 (_ BitVec 1))
         (M6 (_ BitVec 1))
         (N6 (_ BitVec 1))
         (O6 (_ BitVec 1))
         (P6 (_ BitVec 1))
         (Q6 (_ BitVec 1))
         (R6 (_ BitVec 32))
         (S6 (_ BitVec 1))
         (T6 (_ BitVec 1))
         (U6 (_ BitVec 6))
         (V6 (_ BitVec 32))
         (W6 (_ BitVec 30))
         (X6 (_ BitVec 32))
         (Y6 (_ BitVec 1))
         (Z6 (_ BitVec 1))
         (A7 (_ BitVec 1))
         (B7 (_ BitVec 4))
         (C7 (_ BitVec 1))
         (D7 (_ BitVec 1))
         (E7 (_ BitVec 1))
         (F7 (_ BitVec 1))
         (G7 (_ BitVec 1))
         (H7 (_ BitVec 1))
         (I7 (_ BitVec 1))
         (J7 (_ BitVec 1))
         (K7 (_ BitVec 1))
         (L7 (_ BitVec 1))
         (M7 (_ BitVec 6))
         (N7 (Array (_ BitVec 4) (_ BitVec 8)))
         (O7 (_ BitVec 1))
         (P7 (_ BitVec 4))
         (Q7 (_ BitVec 4))
         (R7 (_ BitVec 1))
         (S7 (_ BitVec 1))
         (T7 (_ BitVec 1))
         (U7 (_ BitVec 8))
         (V7 (_ BitVec 8))
         (W7 (_ BitVec 1))
         (X7 (_ BitVec 1))
         (Y7 (_ BitVec 1))
         (Z7 (_ BitVec 8))
         (A8 (_ BitVec 1))
         (B8 (_ BitVec 1))
         (C8 (_ BitVec 1))
         (D8 (_ BitVec 1))
         (E8 (_ BitVec 1))
         (F8 (_ BitVec 4))
         (G8 (_ BitVec 7))
         (H8 (_ BitVec 1))
         (I8 (_ BitVec 1))
         (J8 (_ BitVec 1))
         (K8 (_ BitVec 1))
         (L8 (_ BitVec 1))
         (M8 (_ BitVec 1))
         (N8 (_ BitVec 32))
         (O8 (_ BitVec 32))
         (P8 (_ BitVec 1))
         (Q8 (_ BitVec 1))
         (R8 (_ BitVec 5)))
  (! (let ((a!1 ((_ extract 4 4)
                  (bvlshr #xd18131210020100
                          (concat #b000000000000000000000000000000000000000000000000000000
                                  ((_ extract 10 8) Q2)
                                  #b000))))
           (a!2 ((_ extract 4 0)
                  (bvlshr #xd18131210020100
                          (concat #b000000000000000000000000000000000000000000000000000000
                                  ((_ extract 10 8) Q2)
                                  #b000))))
           (a!3 (or ((_ bit2bool 31) Q2)
                    ((_ bit2bool 0) Y2)
                    (not (= ((_ extract 26 22) Q2) #b01101))
                    (not ((_ bit2bool 0) V2))))
           (a!4 (or (= B2 #b0)
                    (= A3 #b00)
                    ((_ bit2bool 31) Q2)
                    (not (= ((_ extract 26 22) Q2) #b01101))
                    (not ((_ bit2bool 0) L1))))
           (a!5 ((_ extract 4 1)
                  (bvlshr #xd18131210020100
                          (concat #b000000000000000000000000000000000000000000000000000000
                                  ((_ extract 26 24) Q2)
                                  #b000))))
           (a!6 ((_ extract 4 4)
                  (bvlshr #xd18131210020100
                          (concat #b000000000000000000000000000000000000000000000000000000
                                  ((_ extract 26 24) Q2)
                                  #b000))))
           (a!7 ((_ extract 4 0)
                  (bvlshr #xd18131210020100
                          (concat #b000000000000000000000000000000000000000000000000000000
                                  ((_ extract 26 24) Q2)
                                  #b000))))
           (a!8 ((_ extract 0 0)
                  (bvlshr #xd18131210020100
                          (concat #b000000000000000000000000000000000000000000000000000000
                                  ((_ extract 26 24) Q2)
                                  #b000))))
           (a!9 ((_ extract 3 3)
                  (bvlshr #xd18131210020100
                          (concat #b000000000000000000000000000000000000000000000000000000
                                  ((_ extract 26 24) Q2)
                                  #b000))))
           (a!10 (or (= B2 #b0)
                     ((_ bit2bool 31) Q2)
                     (not (= ((_ extract 26 22) Q2) #b01101))
                     (not (= V2 #b1))))
           (a!11 (or (= B2 #b0)
                     ((_ bit2bool 31) Q2)
                     (not (= ((_ extract 26 22) Q2) #b01000))
                     (not ((_ bit2bool 0) Y3))
                     (not ((_ bit2bool 0) L1))))
           (a!12 (or (= B2 #b0)
                     ((_ bit2bool 31) Q2)
                     (not (= ((_ extract 26 22) Q2) #b01000))
                     (not (= V2 #b1))))
           (a!13 (or (= V2 #b0)
                     ((_ bit2bool 3) O2)
                     (not (= ((_ extract 31 31) Q2) #b1))))
           (a!14 (or (= B2 #b0)
                     (not (= ((_ extract 31 31) Q2) #b0))
                     (not (= V2 #b1))
                     (not ((_ bit2bool 26) Q2))
                     (not ((_ bit2bool 25) Q2))))
           (a!15 ((_ extract 4 0)
                   (bvlshr #xd18131210020100
                           (concat #b000000000000000000000000000000000000000000000000000000
                                   ((_ extract 10 8) S1)
                                   #b000))))
           (a!16 ((_ extract 0 0)
                   (bvlshr #xd18131210020100
                           (concat #b000000000000000000000000000000000000000000000000000000
                                   ((_ extract 10 8) Q2)
                                   #b000))))
           (a!17 ((_ extract 4 1)
                   (bvlshr #xd18131210020100
                           (concat #b000000000000000000000000000000000000000000000000000000
                                   ((_ extract 10 8) Q2)
                                   #b000))))
           (a!18 (or (= E8 #b0)
                     (not (= J6 #b1))
                     (= V5 #b0)
                     ((_ bit2bool 0) R2)
                     (not ((_ bit2bool 6) X1))
                     (= F3 #b01110)
                     (not (= ((_ extract 4 0) X1) F3))))
           (a!19 ((_ extract 2 2)
                   (bvlshr #xd18131210020100
                           (concat #b000000000000000000000000000000000000000000000000000000
                                   ((_ extract 10 8) Q2)
                                   #b000))))
           (a!20 ((_ extract 3 3)
                   (bvlshr #xd18131210020100
                           (concat #b000000000000000000000000000000000000000000000000000000
                                   ((_ extract 10 8) Q2)
                                   #b000))))
           (a!21 ((_ extract 4 4)
                   (bvlshr #xd18131210020100
                           (concat #b000000000000000000000000000000000000000000000000000000
                                   ((_ extract 10 8) S1)
                                   #b000))))
           (a!22 ((_ extract 4 1)
                   (bvlshr #xd18131210020100
                           (concat #b000000000000000000000000000000000000000000000000000000
                                   ((_ extract 10 8) S1)
                                   #b000))))
           (a!23 ((_ extract 0 0)
                   (bvlshr #xd18131210020100
                           (concat #b000000000000000000000000000000000000000000000000000000
                                   ((_ extract 10 8) S1)
                                   #b000)))))
     (let ((a!24 (and (or (not (= B2 #b0))
                          (not (= Y6 #b0))
                          (not (= C2 #b0))
                          (= a!1 #b1)
                          (= a!2 #b01101)
                          (not (= V2 #b1))
                          (not ((_ bit2bool 31) Q2)))
                      (= I3 #b0)
                      (= P3 #b0)
                      (or (not (= M1 #b1)) (not (= S2 #b1)))
                      (or (= Q1 #b0) (not (= M1 #b1)))
                      (or (not ((_ bit2bool 0) J3)) (not (= B3 #b1)))
                      (or (not (= Q5 #b1)) (= X4 #b0))
                      (or ((_ bit2bool 0) K3)
                          (not ((_ bit2bool 0) J3))
                          (not (= U2 #b1)))
                      (or (= X4 #b0) (= Y3 #b0))
                      (or (not (= H6 #b1)) (= V2 #b0))
                      (or ((_ bit2bool 0) W1)
                          (not (= R2 #b0))
                          (not ((_ bit2bool 0) Y3)))
                      (or (= N5 #b1)
                          ((_ bit2bool 0) N1)
                          (not ((_ bit2bool 0) K7)))
                      (or (= Q1 #b0) (= L1 #b1))
                      (or ((_ bit2bool 0) G2) (not ((_ bit2bool 0) U3)))
                      (or (= V2 #b0) (not (= M1 #b1)))
                      (or (not (= X4 #b1)) (not (= V2 #b1)))
                      (or (= ((_ extract 3 1) P2) #b111)
                          (not ((_ bit2bool 0) Q1))
                          (not ((_ bit2bool 0) V2)))
                      (or (= V2 #b0)
                          ((_ bit2bool 0) C2)
                          (not ((_ bit2bool 0) D5))
                          (not (= F1 #b1)))
                      (or (not ((_ bit2bool 0) N5)) (not ((_ bit2bool 0) V2)))
                      (or (= Q1 #b0) (= U6 #b000000))
                      a!3
                      (or (= Q1 #b0) (not (= B2 #b0)) (not ((_ bit2bool 0) V2)))
                      (or (not (= B2 #b0))
                          (= V2 #b0)
                          ((_ bit2bool 31) Q2)
                          ((_ bit2bool 23) Q2)
                          ((_ bit2bool 24) Q2)
                          ((_ bit2bool 25) Q2))
                      (or (= Q1 #b0)
                          ((_ bit2bool 23) Q2)
                          (not ((_ bit2bool 0) V2)))
                      (or (not (= Y3 #b0))
                          (not ((_ bit2bool 0) J3))
                          (not (= W3 #b1)))
                      (or (= B2 #b0)
                          ((_ bit2bool 31) Q2)
                          ((_ bit2bool 22) Q2)
                          (not (= V2 #b1))
                          (not ((_ bit2bool 26) Q2))
                          (not ((_ bit2bool 23) Q2)))
                      a!4
                      (or ((_ bit2bool 0) B2)
                          (not (= Y6 #b1))
                          (not (= a!5 #x8)))
                      (or ((_ bit2bool 0) B2)
                          (not (= Y6 #b1))
                          (= a!6 #b1)
                          (= a!7 #b01101))
                      (or (= B2 #b0)
                          (not (= Y6 #b1))
                          (not (= a!6 #b1))
                          (= a!5 #x8)
                          (not (= a!8 #b0)))
                      (or ((_ bit2bool 0) B2)
                          (not (= Y6 #b1))
                          (= a!8 #b0)
                          (= a!9 #b1))
                      (or (= T2 #b0)
                          ((_ bit2bool 0) C3)
                          ((_ bit2bool 0) W1)
                          (not ((_ bit2bool 1) C3))
                          (not ((_ bit2bool 3) C3))
                          (not ((_ bit2bool 2) C3))
                          (not ((_ bit2bool 4) C3))
                          (not ((_ bit2bool 3) X1))
                          (not ((_ bit2bool 2) X1))
                          (not ((_ bit2bool 1) X1))
                          (= C3 ((_ extract 4 0) X1))
                          (not ((_ bit2bool 0) Y3))
                          (= ((_ extract 4 0) X1) (concat Y3 #xf)))
                      (or ((_ bit2bool 0) P4) (not (= Y #b1)) (= T2 #b0))
                      (or (= ((_ extract 23 23) Q2) #b1)
                          (not (= S2 #b1))
                          (not (= V2 #b1)))
                      (or (= K2 #b1) (= V2 #b0))
                      (or ((_ bit2bool 31) Q2) (not (= Y6 #b1)))
                      a!10
                      (or ((_ bit2bool 0) K3) (not (= V4 #b1)))
                      a!11
                      (or ((_ bit2bool 0) R2)
                          (= ((_ extract 4 0) P2) #b01111)
                          (not (= Q1 #b1))
                          (not (= V2 #b1)))
                      a!12
                      (or (= U6 #b000000)
                          (not ((_ bit2bool 0) D5))
                          (not (= V2 #b1)))
                      (or (not (= Y6 #b0))
                          (not ((_ bit2bool 0) D5))
                          (not (= V2 #b1))
                          (not ((_ bit2bool 31) Q2))
                          (not (= F1 #b0)))
                      (or ((_ bit2bool 0) V2) (not (= Y6 #b1)))
                      a!13
                      (or (not (= D6 #b1)) (not (= Q1 #b1)))
                      (or (not (= B2 #b0))
                          (= V2 #b0)
                          ((_ bit2bool 31) Q2)
                          ((_ bit2bool 26) Q2)
                          (= ((_ extract 26 22) Q2) #b01000)
                          (= ((_ extract 26 22) Q2) #b01101))
                      (or ((_ bit2bool 0) W1)
                          (not ((_ bit2bool 1) P2))
                          (= ((_ extract 30 27) Q2) #xe)
                          (not ((_ bit2bool 0) D5))
                          (not ((_ bit2bool 2) P2))
                          (not ((_ bit2bool 3) P2))
                          (not ((_ bit2bool 0) Y3))
                          (not (= V2 #b1))
                          (= ((_ extract 4 0) P2) (concat Y3 #xf)))
                      a!14
                      (or (not (= D6 #b1))
                          (= ((_ extract 3 1) X1) #b111)
                          (not (= V2 #b1)))
                      (or (= Q1 #b0)
                          (not (= V2 #b1))
                          (not ((_ bit2bool 26) Q2)))
                      (or (= B2 #b0)
                          (= K3 #b0)
                          ((_ bit2bool 31) Q2)
                          ((_ bit2bool 22) Q2)
                          (not (= L1 #b1))
                          (not ((_ bit2bool 26) Q2))
                          (not ((_ bit2bool 24) Q2)))
                      (or (= B2 #b0)
                          (not (= Y6 #b1))
                          (not ((_ bit2bool 26) Q2))
                          (not ((_ bit2bool 25) Q2)))
                      (or (= B2 #b0)
                          ((_ bit2bool 31) Q2)
                          ((_ bit2bool 22) Q2)
                          (not (= V2 #b1))
                          (not ((_ bit2bool 26) Q2))
                          (not ((_ bit2bool 24) Q2)))
                      (or ((_ bit2bool 31) G6) (not (= J6 #b1)) (= T2 #b0))
                      (or (not (= B2 #b0))
                          (= V2 #b0)
                          ((_ bit2bool 31) Q2)
                          ((_ bit2bool 25) Q2)
                          (= ((_ extract 22 22) Q2) #b0))
                      (or (not (= D6 #b1)) (not (= Y6 #b1)))
                      (or ((_ bit2bool 8) S1)
                          (not ((_ bit2bool 10) S1))
                          (not (= Y6 #b1))
                          (= a!1 #b1))
                      (or (not (= Y6 #b1))
                          (= a!15 #b01101)
                          (not ((_ bit2bool 9) Q2))
                          (not (= a!16 #b1)))
                      (or (= V2 #b0) ((_ bit2bool 23) O1) (not (= Q1 #b1)))
                      (or (not (= D6 #b1)) (not (= S2 #b1)))
                      (or (= Y6 #b0) ((_ bit2bool 8) S1) (not (= a!17 #x8)))
                      (or (= Y6 #b0) ((_ bit2bool 8) S1) (= a!16 #b0))
                      (or (= V2 #b0)
                          (not ((_ bit2bool 0) N1))
                          (not ((_ bit2bool 26) Q2)))
                      (or ((_ bit2bool 0) K3) (not (= Z4 #b1)))
                      (or (not (= I7 #b1)) (= K3 #b0))
                      (or (not (= K3 #b1)) (= O4 #b000000))
                      (or (not (= Y6 #b1)) (= Q1 #b0))
                      (or (not (= B2 #b0)) (= V2 #b0) (not ((_ bit2bool 0) N1)))
                      (or (not (= D6 #b1)) (not ((_ bit2bool 0) N1)))
                      (or (= V2 #b0)
                          (not ((_ bit2bool 0) T3))
                          (not ((_ bit2bool 0) N1))
                          (not (= T2 #b1)))
                      (or (= W3 #b0) (= A3 #b00) (not (= Y3 #b0)))
                      a!18
                      (or (not (= B2 #b0))
                          (= W1 #b1)
                          (not (= Y3 #b0))
                          (not ((_ bit2bool 4) X1))
                          (not (= V2 #b1))
                          (not ((_ bit2bool 31) Q2)))
                      (or (not (= B2 #b0))
                          (not ((_ bit2bool 6) X1))
                          (= ((_ extract 3 1) X1) #b111))
                      (or (not (= S3 #b0))
                          (= J6 #b1)
                          (= Y4 #b0)
                          ((_ bit2bool 8) O1)
                          (not (= V2 #b1))
                          (not (= a!16 #b1)))
                      (or (= A3 #b11) (= A3 #b00) (= O4 #b000000))
                      (or (not (= B2 #b0))
                          (not (= Y6 #b0))
                          (not (= C2 #b0))
                          ((_ bit2bool 0) Y2)
                          (= a!1 #b1)
                          (not (= V2 #b1))
                          (not ((_ bit2bool 31) Q2)))
                      (or (not (= Z4 #b1)) (not (= A7 #b0)))
                      (or (= V2 #b0)
                          (not (= Y6 #b0))
                          (not (= C2 #b0))
                          ((_ bit2bool 31) G6)
                          (not ((_ bit2bool 31) Q2)))
                      (or (= J6 #b1)
                          (= V2 #b0)
                          (not (= Y6 #b0))
                          (not (= C2 #b0))
                          (not ((_ bit2bool 31) Q2)))
                      (or (not (= Y6 #b1))
                          (not ((_ bit2bool 9) S1))
                          (not ((_ bit2bool 10) S1))
                          (not ((_ bit2bool 8) S1))
                          (= a!2 #b01101))
                      (or (not (= N1 #b1))
                          (not (= C2 #b0))
                          (not (= V2 #b1))
                          (not ((_ bit2bool 31) Q2))
                          (not (= a!19 #b1)))
                      (or (not (= S3 #b0))
                          (not (= J6 #b1))
                          (= Y4 #b0)
                          ((_ bit2bool 0) B2)
                          (= a!16 #b0)
                          (= a!20 #b1))
                      (or (not (= B2 #b0))
                          (not (= Y6 #b0))
                          ((_ bit2bool 0) G1)
                          (= a!1 #b1)
                          (= a!2 #b01101)
                          (not (= V2 #b1))
                          (not ((_ bit2bool 31) Q2)))
                      (or (not ((_ bit2bool 0) X1)) (not ((_ bit2bool 6) X1)))
                      (or ((_ bit2bool 8) Q2)
                          (not (= C2 #b0))
                          (not ((_ bit2bool 0) N1))
                          (not (= V2 #b1))
                          (not ((_ bit2bool 31) Q2))
                          (not ((_ bit2bool 10) Q2)))
                      (or (not (= B2 #b0))
                          (not (= Y6 #b0))
                          (not (= C2 #b0))
                          (not (= a!17 #x8))
                          (not (= V2 #b1))
                          (not ((_ bit2bool 31) Q2)))
                      (or (= V2 #b0)
                          (not (= Y6 #b0))
                          ((_ bit2bool 0) B2)
                          (not (= C2 #b0))
                          (= a!16 #b0)
                          (not ((_ bit2bool 31) Q2))
                          (= a!20 #b1))
                      (or (not (= V4 #b1)) (not (= U2 #b0)))
                      (or (= B2 #b0)
                          (not (= Y6 #b0))
                          (not (= C2 #b0))
                          (not (= V2 #b1))
                          (not ((_ bit2bool 31) Q2))
                          (not (= a!19 #b1)))
                      (or ((_ bit2bool 8) Q2)
                          (not (= C2 #b0))
                          (not (= a!1 #b1))
                          (= L1 #b1)
                          (not (= V2 #b1))
                          (not ((_ bit2bool 31) Q2)))
                      (or ((_ bit2bool 8) Q2)
                          ((_ bit2bool 31) G6)
                          (not (= V2 #b1))
                          (= a!21 #b1)
                          (not ((_ bit2bool 10) Q2)))
                      (or ((_ bit2bool 8) Q2)
                          (not (= Y6 #b1))
                          (not (= a!22 #x8)))
                      (or (= J6 #b1)
                          ((_ bit2bool 8) Q2)
                          (not (= V2 #b1))
                          (= a!21 #b1)
                          (not ((_ bit2bool 10) Q2)))
                      (or (= J6 #b1)
                          ((_ bit2bool 8) Q2)
                          (not (= V2 #b1))
                          (not (= a!22 #x8)))
                      (or ((_ bit2bool 8) Q2)
                          (not (= Y6 #b1))
                          (= a!21 #b1)
                          (not ((_ bit2bool 10) Q2)))
                      (or (not (= I5 #b0)) (= E8 #b0))
                      (or (not (= S2 #b1))
                          (not (= V2 #b1))
                          (not ((_ bit2bool 31) Q2)))
                      (or ((_ bit2bool 9) O1)
                          (not (= Q1 #b1))
                          (not ((_ bit2bool 9) Q2)))
                      (or ((_ bit2bool 8) Q2)
                          ((_ bit2bool 31) G6)
                          (not (= V2 #b1))
                          (= a!23 #b0))
                      (or ((_ bit2bool 8) Q2) (not (= Y6 #b1)) (= a!23 #b0))
                      (or (= J6 #b1)
                          ((_ bit2bool 8) Q2)
                          (not (= V2 #b1))
                          (= a!23 #b0))
                      (or (not (= B2 #b0))
                          (not (= Y6 #b0))
                          (= a!1 #b1)
                          (= a!2 #b01101)
                          (not (= V2 #b1))
                          (= F1 #b1)
                          (not ((_ bit2bool 31) Q2)))
                      (or (not (= Z4 #b1)) (not (= N3 #b1)))
                      (or (= B2 #b0)
                          (not (= Y6 #b0))
                          ((_ bit2bool 8) Q2)
                          (not (= C2 #b0))
                          (not (= V2 #b1))
                          (not ((_ bit2bool 31) Q2))
                          (not ((_ bit2bool 10) Q2)))
                      (or (not (= B2 #b0))
                          (= a!1 #b1)
                          (= a!2 #b01101)
                          (= L1 #b1)
                          (not (= V2 #b1))))))
       (= (INV!slice!1 A
                       B
                       C
                       D
                       E
                       F
                       G
                       H
                       I
                       J
                       K
                       L
                       M
                       N
                       O
                       P
                       Q
                       R
                       S
                       T
                       U
                       V
                       W
                       X
                       Y
                       Z
                       A1
                       B1
                       C1
                       D1
                       E1
                       F1
                       G1
                       H1
                       I1
                       J1
                       K1
                       L1
                       M1
                       N1
                       O1
                       P1
                       Q1
                       R1
                       S1
                       T1
                       U1
                       V1
                       W1
                       X1
                       Y1
                       Z1
                       A2
                       B2
                       C2
                       D2
                       E2
                       F2
                       G2
                       H2
                       I2
                       J2
                       K2
                       L2
                       M2
                       N2
                       O2
                       P2
                       Q2
                       R2
                       S2
                       T2
                       U2
                       V2
                       W2
                       X2
                       Y2
                       Z2
                       A3
                       B3
                       C3
                       D3
                       E3
                       F3
                       G3
                       H3
                       I3
                       J3
                       K3
                       L3
                       M3
                       N3
                       O3
                       P3
                       Q3
                       R3
                       S3
                       T3
                       U3
                       V3
                       W3
                       X3
                       Y3
                       Z3
                       A4
                       B4
                       C4
                       D4
                       E4
                       F4
                       G4
                       H4
                       I4
                       J4
                       K4
                       L4
                       M4
                       N4
                       O4
                       P4
                       Q4
                       R4
                       S4
                       T4
                       U4
                       V4
                       W4
                       X4
                       Y4
                       Z4
                       A5
                       B5
                       C5
                       D5
                       E5
                       F5
                       G5
                       H5
                       I5
                       J5
                       K5
                       L5
                       M5
                       N5
                       O5
                       P5
                       Q5
                       R5
                       S5
                       T5
                       U5
                       V5
                       W5
                       X5
                       Y5
                       Z5
                       A6
                       B6
                       C6
                       D6
                       E6
                       F6
                       G6
                       H6
                       I6
                       J6
                       K6
                       L6
                       M6
                       N6
                       O6
                       P6
                       Q6
                       R6
                       S6
                       T6
                       U6
                       V6
                       W6
                       X6
                       Y6
                       Z6
                       A7
                       B7
                       C7
                       D7
                       E7
                       F7
                       G7
                       H7
                       I7
                       J7
                       K7
                       L7
                       M7
                       N7
                       O7
                       P7
                       Q7
                       R7
                       S7
                       T7
                       U7
                       V7
                       W7
                       X7
                       Y7
                       Z7
                       A8
                       B8
                       C8
                       D8
                       E8
                       F8
                       G8
                       H8
                       I8
                       J8
                       K8
                       L8
                       M8
                       N8
                       O8
                       P8
                       Q8
                       R8)
          a!24)))
     :weight 0))
